
Gurobi 11.0.3 (mac64[arm], gurobi_cl) logging started Wed Jun 25 14:15:42 2025

Set parameter Username
Set parameter LogFile to value "gurobi.log"
Using license file /Users/elizacohn/gurobi.lic
Academic license - for non-commercial use only - expires 2025-11-26
